
Gurobi 11.0.3 (linux64) logging started Tue 19 Nov 2024 12:25:03 AM CST

Set parameter LogFile to value "/home/dlcole3/graph_abstraction/hierarchical_graphs/git_storage/CS1/HP_low_reserves/gurobi_logs/serial/logfile_ST25_8.log"

Gurobi 11.0.3 (linux64) logging started Tue 19 Nov 2024 12:28:34 AM CST

Set parameter LogFile to value "/home/dlcole3/graph_abstraction/hierarchical_graphs/git_storage/CS1/HP_low_reserves/gurobi_logs/serial/logfile_ST25_8.log"
Gurobi Optimizer version 11.0.3 build v11.0.3rc0 (linux64 - "Ubuntu 18.04.3 LTS")

CPU model: Intel(R) Xeon(R) CPU E5-2698 v4 @ 2.20GHz, instruction set [SSE2|AVX|AVX2]
Thread count: 40 physical cores, 80 logical processors, using up to 20 threads

Optimize a model with 29168 rows, 50688 columns and 136175 nonzeros
Model fingerprint: 0xfb5f7456
Variable types: 46944 continuous, 3744 integer (3744 binary)
Coefficient statistics:
  Matrix range     [6e-01, 2e+04]
  Objective range  [2e+00, 2e+04]
  Bounds range     [5e-02, 2e+05]
  RHS range        [1e-03, 7e+03]
Presolve removed 14295 rows and 38764 columns
Presolve time: 0.35s
Presolved: 14873 rows, 11924 columns, 63882 nonzeros
Variable types: 8845 continuous, 3079 integer (3079 binary)
Found heuristic solution: objective 5898670.0697
Found heuristic solution: objective 4891420.0782

Root relaxation: objective 1.546509e+05, 8172 iterations, 0.43 seconds (0.35 work units)

    Nodes    |    Current Node    |     Objective Bounds      |     Work
 Expl Unexpl |  Obj  Depth IntInf | Incumbent    BestBd   Gap | It/Node Time

     0     0 154650.901    0   28 4891420.08 154650.901  96.8%     -    1s
H    0     0                    419056.86330 154650.901  63.1%     -    1s
H    0     0                    189095.96894 154653.867  18.2%     -    1s
     0     0 154653.867    0   43 189095.969 154653.867  18.2%     -    1s
     0     0 154754.493    0   68 189095.969 154754.493  18.2%     -    2s
     0     0 154771.538    0   84 189095.969 154771.538  18.2%     -    2s
H    0     0                    162309.44749 154771.538  4.64%     -    2s
     0     0 154771.538    0   77 162309.447 154771.538  4.64%     -    2s
     0     2 154771.538    0   77 162309.447 154771.538  4.64%     -    2s
H   38    38                    159272.96349 154805.881  2.80%   127    4s
H   89    57                    159272.96347 154805.881  2.80%   109    4s
H   90    57                    159272.96341 154805.881  2.80%   109    4s
H   97    57                    159272.96324 154805.881  2.80%   108    4s
H  105    57                    158859.31613 154805.881  2.55%   104    4s
   109    72     cutoff    9      158859.316 154805.881  2.55%   106    5s
H  206   123                    158857.25382 154805.881  2.55%  83.3    5s
H  283   181                    158621.44770 154805.881  2.41%  76.0    6s
H  305   198                    158603.08997 154805.881  2.39%  73.4    6s
H  319   212                    158588.33584 154805.881  2.39%  73.5    6s
H  320   212                    157450.85074 154805.881  1.68%  73.4    6s
H  331   212                    157051.63384 154805.881  1.43%  72.6    6s
H  769   372                    156839.19962 154805.881  1.30%  59.8    8s
H 1247   696                    156167.44939 154805.881  0.87%  46.6    9s
  1506   783 155904.173   24   27 156167.449 155280.762  0.57%  43.1   10s
H 1518   783                    156167.27028 155280.762  0.57%  43.2   10s
H 1523   783                    156167.09117 155280.762  0.57%  43.1   10s
H 1664   900                    156151.74494 155280.762  0.56%  41.1   10s
H 1704   900                    155916.38377 155280.762  0.41%  40.4   10s

Cutting planes:
  Gomory: 4
  MIR: 1

Explored 2076 nodes (81826 simplex iterations) in 10.54 seconds (9.99 work units)
Thread count was 20 (of 80 available processors)

Solution count 10: 155916 156152 156167 ... 158857

Optimal solution found (tolerance 3.00e-03)
Best objective 1.559163837691e+05, best bound 1.555824317020e+05, gap 0.2142%

User-callback calls 6240, time in user-callback 0.00 sec
